c array.sh: path:     /data/qbf/qbf20/PCNF/depots08_6.qdimacs
c array.sh: name:     depots08_6
c array.sh: task:     28
c array.sh: host:     c3n14
c array.sh: uname:    Linux c3n14 4.15.0-135-generic #139-Ubuntu SMP Mon Jan 18 17:38:24 UTC 2021 x86_64 x86_64 x86_64 GNU/Linux
c array.sh: start:    Tue Feb 16 22:43:50 CET 2021
c array.sh: noturbo:  1
c array.sh: governor: 32 performance
c array.sh: tmp:      1%
c array.sh: unzipped: /tmp/local-unzipped-18834727-28-depots08_6.cnf
using tmp directory:
  /tmp
running QBF solver...

/home/seidl/cert_tests/bin/ferp-models/ijtihad/ijtihad --dependencies=0 --wit_per_call=-1 --cex_per_call=-1 --log_phi=/tmp/ferpcert2795expanded.cnf /tmp/local-unzipped-18834727-28-depots08_6.cnf
c Options after parsing: 
c cex_per_call = 18446744073709551615
c wit_per_call = 18446744073709551615
c warmup = 1
c warmup_randoms = 0
c trimming_phi = 0
c trimming_ksi = 2
c trimming_interval = 200
c memory_limit = 3000000
c MySolverv970-glucose
1 -2 
-1 2 
1 2 
-1 -2 
c Number of calls is: 0
c Layers in PHI: 0
c Layers in KSI: 0
c Running Ijtihad loop
c sat_solver_phi calld 0 times, running for 0.027704 seconds.
c number of layers in PHI is 4
c sat_solver_ksi was running for 0 seconds.
c number of layers in KSI is 0
c mysolver was running for 1.22609 seconds.
s cnf 0
solving done with exit code 20

QBF solver OK

running SAT Solver...

/tmp/ferpcert2795expanded.cnf
s UNSATISFIABLE

PROOF GENERATION OK

checking unsat proof

resolved 1 root and 1 empty clause
trace-size2: 4527882

TRACE CHECK OK

running toferp...

ferp-size: 4263373
TOFERP OK

checking FERP PROOF...

FERP CHECK OK

extracting AIG ...

aig-size: 927980437
aig-header: aag 35019583 3366 0 2 35016217
FERP CERT OK

merging  AIG into QBF ...

CERTCHECK OK

merged-cnf-header: p cnf 36465563 109376486
merged-cnf-size: 2566279763
running SAT solver...

c ---- [ banner ] ------------------------------------------------------------
c
c KISSAT SAT Solver
c Copyright (c) 2019-2020 Armin Biere JKU Linz
c 
c Version 1.0.3 59813addcacc4d6fb880ebdd63685600475aa940
c gcc (Ubuntu 7.5.0-3ubuntu1~18.04) 7.5.0 -W -Wall -O3 -DNEMBEDDED -DNDEBUG -DNMETRICS -DNSTATISTICS
c Sun Feb 14 23:58:54 CET 2021 Linux cluster3 4.15.0-135-generic x86_64
c
c ---- [ parsing ] -----------------------------------------------------------
c
c opened and reading DIMACS file:
c 
c   /tmp/ferpcert_merged_cnf2795.cnf
c 
c parsed 'p cnf 36465563 109376486' header
c closing input after reading 2566279763 bytes (2 GB)
c finished parsing after 32.74 seconds
c
c ---- [ solving ] -----------------------------------------------------------
c
c  seconds   reductions redundant  irredundant
c           MB   restarts    trail           variables
c            level  conflicts   glue                remaining
c
c * 32.74 5250 0  0  0   0   0 0% 0 109376484 35511575 97%
c { 32.74 5250 0  0  0   0   0 0% 0 109376484 35511575 97%
c i 39.26 5836 254  0  0   4   3 78% 2 109376484 35511145 97%
c i 42.32 5838 281  0  0   7   5 73% 2 109376484 35511093 97%
c i 42.79 5838 290  0  0   9   6 74% 2 109376484 35511085 97%
c i 43.23 5838 301  0  0  12   8 76% 2 109376484 35511069 97%
c i 43.93 5838 312  0  0  18  11 76% 2 109376484 35510691 97%
c i 44.46 5838 314  0  0  22  13 76% 2 109376484 35510426 97%
c i 44.59 5838 321  0  0  24  14 74% 2 109376484 35510094 97%
c i 46.04 5838 324  0  0  25  14 73% 2 109376484 35510073 97%
c i 57.05 5838 340  0  0  79  18 63% 1 109376484 35509556 97%
c i 66.02 5841 204  0  0 126  64 54% 3 109376484 35509445 97%
c i 68.12 5845 212  0  0 131  67 53% 3 109376484 35509441 97%
c i 69.11 5845 214  0  0 133  68 52% 3 109376484 35509439 97%
c i 72.14 5846 221  0  0 141  72 51% 2 109376484 35509437 97%
c i 79.94 5848 262  0  0 190 101 46% 12 109376484 35509401 97%
c i 313.42 5869 178  0  0 517 123 34% 31 109376484 35509398 97%
c - 315.91 5869 178  1  0 517  99 34% 31 107468737 35509398 97%
c i 315.91 5869 177  1  1 518  99 34% 31 107468737 35509396 97%
c i 341.81 5873 261  1  9 555 113 36% 40 107468737 35509392 97%
c
c  seconds      reductions redundant    irredundant
c            MB     restarts     trail            variables
c              level   conflicts     glue                remaining
c
c i 352.44 5873 255  1 17 566 123 36% 37 107468737 35509302 97%
c i 354.23 5873 255  1 18 567 123 36% 37 107468737 35508936 97%
c i 403.75 5874 243  1 43 595 149 36% 30 107468737 35508934 97%
c i 405.31 5874 237  1 43 624 174 35% 24 107468737 35508849 97%
c i 407.02 5874 236  1 43 628 177 35% 24 107468737 35508845 97%
c i 408.99 5874 235  1 43 636 184 35% 22 107468737 35508828 97%
c i 409.06 5874 234  1 43 641 184 35% 22 107468737 35508820 97%
c i 410.04 5874 232  1 43 652 193 35% 21 107468737 35508818 97%
c i 410.65 5874 227  1 43 672 209 35% 20 107468737 35508816 97%
c i 410.69 5874 226  1 43 679 213 35% 19 107468737 35508814 97%
c i 410.75 5874 225  1 43 686 217 35% 19 107468737 35508812 97%
c i 410.75 5874 224  1 43 689 219 35% 19 107468737 35508810 97%
c i 414.91 5874 228  1 44 720 248 34% 21 107468737 35508807 97%
c i 480.57 5876 225  1 73 762 288 35% 32 107468737 35508806 97%
c i 481.07 5876 224  1 74 763 288 35% 32 107468737 35508676 97%
c i 481.08 5876 224  1 74 764 288 35% 32 107468737 35505797 97%
c i 508.44 5876 244  1 79 771 294 35% 31 107468737 35505795 97%
c i 508.52 5876 245  1 80 772 294 35% 31 107468737 35505794 97%
c i 536.81 5877 241  1 88 783 304 36% 30 107468737 35505790 97%
c i 544.64 5877 239  1 92 789 309 36% 29 107468737 35505786 97%
c
c  seconds      reductions redundant    irredundant
c            MB     restarts     trail            variables
c              level   conflicts     glue                remaining
c
c i 547.72 5877 238  1 93 792 311 36% 29 107468737 35505782 97%
c i 558.66 5878 228  1 95 814 332 36% 27 107468737 35505737 97%
c i 560.74 5878 226  1 95 819 336 36% 26 107468737 35505734 97%
c i 562.06 5878 225  1 95 821 337 36% 26 107468737 35505730 97%
c i 565.58 5878 219  1 95 836 351 36% 25 107468737 35505728 97%
c i 566.68 5878 218  1 95 839 353 36% 25 107468737 35505726 97%
c i 574.81 5878 215  1 95 847 360 36% 24 107468737 35505722 97%
c i 576.81 5878 214  1 95 849 361 36% 24 107468737 35505718 97%
c i 587.82 5879 206  1 95 870 379 36% 22 107468737 35499375 97%
c i 590.43 5879 205  1 95 875 382 36% 22 107468737 35499188 97%
c i 592.69 5879 205  1 95 876 382 36% 22 107468737 35498060 97%
c i 595.82 5879 203  1 95 881 386 36% 22 107468737 35498058 97%
c - 610.49 5879 182  2 95 1126 281 48% 21 107430105 35498058 97%
c } 610.49 5879 182  2 95 1126 281 48% 21 107430105 35498058 97%
c [ 610.49 5879 0  2 95 1126 281 0% 0 107430105 35498058 97%
c O 624.21 5880 206  2 95 1127 282 93% 21 106941322 35498058 97%
c i 625.50 5882 156  2 95 1130 284 88% 5 106941322 35498056 97%
c i 643.05 5882 466  2 95 2213 296 84% 123 106941322 35498035 97%
c - 645.38 5883 466  3 95 2213 260 84% 123 106941255 35498035 97%
c i 650.70 5883 462  3 95 2231 277 84% 63 106941255 35497997 97%
c
c  seconds      reductions  redundant    irredundant
c            MB     restarts      trail            variables
c              level   conflicts      glue                remaining
c
c i 650.71 5883 463  3 95 2234 279 84% 78 106941255 35497953 97%
c i 651.36 5883 585  3 95 2726 326 83% 350 106941255 35497947 97%
c i 651.37 5883 586  3 95 2730 328 83% 365 106941255 35497945 97%
c i 651.37 5883 587  3 95 2735 332 83% 374 106941255 35497943 97%
c i 651.37 5883 589  3 95 2746 329 83% 383 106941255 35497937 97%
c i 651.46 5883 592  3 95 2761 340 83% 356 106941255 35497885 97%
c I 657.70 5886 592  3 95 3145 417 83% 255 106941255 35497885 97%
c i 657.85 5886 599  3 95 3151 418 83% 243 106941255 35497877 97%
c i 658.19 5886 605  3 95 3173 428 83% 223 106941255 35497875 97%
c i 658.37 5886 608  3 95 3183 429 83% 208 106941255 35497859 97%
c i 658.87 5886 610  3 95 3191 436 83% 196 106941255 35497857 97%
c i 658.90 5887 610  3 95 3198 440 83% 188 106941255 35497855 97%
c i 659.58 5889 601  3 95 3279 515 82% 132 106941255 35497853 97%
c i 659.58 5889 601  3 95 3283 517 82% 130 106941255 35497851 97%
c i 659.62 5889 599  3 95 3293 524 82% 126 106941255 35497849 97%
c i 661.89 5896 588  3 95 3359 582 82% 100 106941255 35497847 97%
c - 669.15 5923 575  4 95 3413 542 82% 82 106940697 35497847 97%
c i 674.92 5923 574  4 95 3417 545 82% 81 106940697 35497845 97%
c i 683.09 5927 555  4 95 3534 653 83% 60 106940697 35497843 97%
c i 683.33 5927 553  4 95 3542 660 83% 59 106940697 35497842 97%
c
c  seconds      reductions  redundant    irredundant
c            MB     restarts      trail            variables
c              level   conflicts      glue                remaining
c
c i 683.48 5927 552  4 95 3548 662 83% 59 106940697 35497840 97%
c i 683.66 5927 546  4 95 3586 665 83% 55 106940697 35497806 97%
c i 684.45 5927 527  4 95 3705 772 83% 45 106940697 35497805 97%
c i 684.46 5927 526  4 95 3711 775 83% 45 106940697 35497802 97%
c i 688.86 5928 503  4 95 3856 903 83% 35 106940697 35497800 97%
c i 689.40 5928 500  4 95 3870 909 83% 35 106940697 35497723 97%
c i 701.00 5933 464  4 95 4046 967 82% 31 106940697 35497721 97%
c i 707.43 5933 463  4 95 4047 967 83% 30 106940697 35497719 97%
c i 713.85 5933 463  4 95 4048 967 83% 30 106940697 35497717 97%
c i 720.17 5933 463  4 95 4049 967 83% 30 106940697 35497715 97%
c i 726.49 5933 463  4 95 4050 967 83% 30 106940697 35497713 97%
c i 733.49 5939 443  4 96 4206 1107 83% 25 106940697 35497711 97%
c i 733.49 5939 443  4 96 4208 1108 83% 25 106940697 35497709 97%
c i 733.49 5939 443  4 96 4209 1108 83% 25 106940697 35497707 97%
c i 733.50 5939 443  4 96 4211 1109 83% 25 106940697 35497705 97%
c i 733.69 5939 443  4 96 4224 1121 83% 25 106940697 35497703 97%
c i 734.15 5940 441  4 96 4261 1155 84% 25 106940697 35497701 97%
c i 734.30 5940 438  4 96 4286 1178 84% 25 106940697 35497692 97%
c i 734.59 5940 429  4 96 4349 1238 84% 26 106940697 35497682 97%
c i 735.76 5940 419  4 96 4406 1293 84% 25 106940697 35497672 97%
c
c  seconds      reductions  redundant     irredundant
c            MB     restarts       trail            variables
c              level   conflicts       glue                remaining
c
c i 765.92 5940 425  4 96 4835 1302 84% 32 106940697 35497670 97%
c i 767.67 5941 430  4 96 4889 1354 84% 31 106940697 35497666 97%
c - 771.38 5943 439  5 96 4913 1199 84% 30 106939977 35497666 97%
c caught signal 15 (SIGTERM)
c
c ---- [ profiling ] ---------------------------------------------------------
c
c         779.71   95.17 %  search
c         577.75   70.52 %  focused
c         201.97   24.65 %  stable
c          32.74    4.00 %  parse
c          13.66    1.67 %  reduce
c           6.84    0.83 %  autarky
c           6.84    0.83 %  simplify
c =============================================
c         819.29  100.00 %  total
c
c ---- [ statistics ] --------------------------------------------------------
c
c conflicts:                             4991                6.09 per second
c decisions:                            36978                7.41 per conflict
c propagations:                    6551801627          7996872    per second
c reductions:                               5              998    interval
c rephased:                                 2             2496    interval
c restarts:                                96               51.99 interval
c
c ---- [ resources ] ---------------------------------------------------------
c
c maximum-resident-set-size:       6246559744 bytes       5957 MB
c process-time:                        13m 39s             819.29 seconds
c raising signal 15 (SIGTERM)
clean up and exit
c array.sh: end:      Tue Feb 16 22:58:53 CET 2021
